p cnf 197 502
-1 3 0 
1 5 0 
-97 98 0 
-97 27 0 
-98 99 0 
-98 25 0 
-99 100 0 
-99 18 0 
-100 24 0 
-101 -102 8 0 
-101 102 108 0 
-102 103 0 
-102 33 0 
-103 104 0 
-103 31 0 
-104 105 0 
-104 29 0 
-105 106 0 
-105 27 0 
-106 107 0 
-106 25 0 
-8 4 0 
-107 100 0 
-107 42 0 
-108 -109 8 0 
-108 109 115 0 
-109 110 0 
-109 33 0 
-110 111 0 
-110 31 0 
-111 112 0 
-111 29 0 
-112 113 0 
-112 27 0 
-113 114 0 
-113 25 0 
-114 100 0 
-114 83 0 
-115 -116 8 0 
-115 116 122 0 
-116 117 0 
-116 33 0 
-9 -10 11 0 
-9 10 3 0 
-117 118 0 
-117 31 0 
-118 119 0 
-118 29 0 
-119 120 0 
-119 27 0 
-120 121 0 
-120 25 0 
-121 100 0 
-121 92 0 
-122 -123 8 0 
-122 123 129 0 
-123 124 0 
-123 33 0 
-124 125 0 
-124 31 0 
-125 126 0 
-125 29 0 
-126 127 0 
-126 27 0 
-10 7 0 
-127 128 0 
-127 17 0 
-128 26 0 
-129 -130 8 0 
-129 130 135 0 
-130 131 0 
-130 33 0 
-131 132 0 
-131 31 0 
-132 133 0 
-132 29 0 
-133 134 0 
-133 27 0 
-134 128 0 
-134 41 0 
-135 -136 8 0 
-135 136 141 0 
-136 137 0 
-136 33 0 
-11 -12 8 0 
-11 12 35 0 
-137 138 0 
-137 31 0 
-138 139 0 
-138 29 0 
-139 140 0 
-139 16 0 
-140 28 0 
-141 -142 146 0 
-141 142 178 0 
-142 143 0 
-142 33 0 
-143 144 0 
-143 31 0 
-144 145 0 
-144 29 0 
-145 140 0 
-145 40 0 
-146 -147 8 0 
-146 147 3 0 
-12 13 0 
-12 33 0 
-147 148 0 
-147 175 0 
-148 149 0 
-148 172 0 
-149 150 0 
-149 169 0 
-150 151 0 
-150 166 0 
-151 152 0 
-151 163 0 
-152 153 0 
-152 160 0 
-153 154 0 
-153 157 0 
-154 -155 156 0 
-154 -156 155 0 
-13 14 0 
-13 31 0 
-157 -158 159 0 
-157 -159 158 0 
-160 -161 162 0 
-160 -162 161 0 
-163 -164 165 0 
-163 -165 164 0 
-166 -167 168 0 
-166 -168 167 0 
-14 15 0 
-14 29 0 
-169 -170 171 0 
-169 -171 170 0 
-172 -173 174 0 
-172 -174 173 0 
-175 -176 177 0 
-175 -177 176 0 
-15 16 0 
-15 27 0 
-178 -179 3 0 
-178 179 183 0 
-179 180 0 
-179 33 0 
-180 181 0 
-180 31 0 
-181 182 0 
-181 29 0 
-182 140 0 
-182 81 0 
-183 -184 3 0 
-183 184 188 0 
-184 185 0 
-184 33 0 
-185 186 0 
-185 31 0 
-186 187 0 
-186 29 0 
-16 17 0 
-16 25 0 
-187 140 0 
-187 90 0 
-188 -189 8 0 
-188 189 193 0 
-189 190 0 
-189 33 0 
-190 191 0 
-190 31 0 
-191 192 0 
-191 29 0 
-192 98 0 
-192 140 0 
-193 -194 8 0 
-193 194 3 0 
-194 195 0 
-194 33 0 
-195 196 0 
-195 31 0 
-196 197 0 
-196 29 0 
-1 2 0 
-17 18 0 
-17 23 0 
-197 106 0 
-197 140 0 
-18 19 0 
-18 21 0 
-19 -20 0 
-21 -22 0 
-23 -24 0 
-25 -26 0 
-27 -28 0 
-29 -30 0 
-31 -32 0 
-33 -34 0 
-35 -36 44 0 
-35 36 76 0 
-36 33 0 
-36 37 0 
-37 31 0 
-37 38 0 
-38 29 0 
-38 39 0 
-39 27 0 
-39 40 0 
-40 25 0 
-40 41 0 
-41 23 0 
-41 42 0 
-42 21 0 
-42 43 0 
-43 20 0 
-44 -45 8 0 
-44 45 3 0 
-45 46 0 
-45 73 0 
-46 47 0 
-46 70 0 
-3 -4 0 
-47 48 0 
-47 67 0 
-48 49 0 
-48 64 0 
-49 50 0 
-49 61 0 
-50 51 0 
-50 58 0 
-51 52 0 
-51 55 0 
-52 -53 54 0 
-52 -54 53 0 
-55 -56 57 0 
-55 -57 56 0 
-58 -59 60 0 
-58 -60 59 0 
-61 -62 63 0 
-61 -63 62 0 
-64 -65 66 0 
-64 -66 65 0 
-67 -68 69 0 
-67 -69 68 0 
-70 -71 72 0 
-70 -72 71 0 
-73 -74 75 0 
-73 -75 74 0 
-76 -77 8 0 
-76 77 85 0 
-5 -6 8 0 
-5 6 9 0 
-77 33 0 
-77 78 0 
-78 31 0 
-78 79 0 
-79 29 0 
-79 80 0 
-80 27 0 
-80 81 0 
-81 25 0 
-81 82 0 
-82 23 0 
-82 83 0 
-83 19 0 
-83 84 0 
-84 22 0 
-85 -86 3 0 
-85 86 93 0 
-86 33 0 
-86 87 0 
-6 -7 0 
-87 31 0 
-87 88 0 
-88 29 0 
-88 89 0 
-89 27 0 
-89 90 0 
-90 25 0 
-90 91 0 
-91 23 0 
-91 92 0 
-92 43 0 
-92 84 0 
-93 -94 44 0 
-93 94 101 0 
-94 33 0 
-94 95 0 
-95 31 0 
-95 96 0 
-96 97 0 
-96 29 0 
97 -98 -27 0 
98 -99 -25 0 
99 -18 -100 0 
100 -24 0 
101 -102 -8 0 
101 -8 -108 0 
101 102 -108 0 
102 -103 -33 0 
103 -104 -31 0 
104 -105 -29 0 
105 -106 -27 0 
106 -107 -25 0 
8 -4 0 
107 -42 -100 0 
108 -8 -115 0 
108 -109 -8 0 
108 109 -115 0 
109 -110 -33 0 
110 -111 -31 0 
111 -112 -29 0 
112 -113 -27 0 
113 -114 -25 0 
114 -83 -100 0 
115 -8 -122 0 
115 -116 -8 0 
115 116 -122 0 
116 -117 -33 0 
9 -10 -11 0 
9 -11 -3 0 
9 10 -3 0 
117 -118 -31 0 
118 -119 -29 0 
119 -120 -27 0 
120 -121 -25 0 
121 -92 -100 0 
122 -8 -129 0 
122 -123 -8 0 
122 123 -129 0 
123 -124 -33 0 
124 -125 -31 0 
125 -126 -29 0 
126 -127 -27 0 
10 -7 0 
127 -17 -128 0 
128 -26 0 
129 -8 -135 0 
129 -130 -8 0 
129 130 -135 0 
130 -131 -33 0 
131 -132 -31 0 
132 -133 -29 0 
133 -134 -27 0 
134 -41 -128 0 
135 -8 -141 0 
135 -136 -8 0 
135 136 -141 0 
136 -137 -33 0 
11 -8 -35 0 
11 -12 -8 0 
11 12 -35 0 
137 -138 -31 0 
138 -139 -29 0 
139 -16 -140 0 
140 -28 0 
141 -142 -146 0 
141 -146 -178 0 
141 142 -178 0 
142 -143 -33 0 
143 -144 -31 0 
144 -145 -29 0 
145 -40 -140 0 
146 -8 -3 0 
146 -147 -8 0 
146 147 -3 0 
12 -13 -33 0 
147 -148 -175 0 
148 -149 -172 0 
149 -150 -169 0 
150 -151 -166 0 
151 -152 -163 0 
152 -153 -160 0 
153 -154 -157 0 
154 -155 -156 0 
154 155 156 0 
13 -14 -31 0 
157 -158 -159 0 
157 158 159 0 
160 -161 -162 0 
160 161 162 0 
163 -164 -165 0 
163 164 165 0 
166 -167 -168 0 
166 167 168 0 
14 -15 -29 0 
169 -170 -171 0 
169 170 171 0 
172 -173 -174 0 
172 173 174 0 
175 -176 -177 0 
175 176 177 0 
15 -16 -27 0 
178 -179 -3 0 
178 -3 -183 0 
178 179 -183 0 
179 -180 -33 0 
180 -181 -31 0 
181 -182 -29 0 
182 -81 -140 0 
183 -184 -3 0 
183 -3 -188 0 
183 184 -188 0 
184 -185 -33 0 
185 -186 -31 0 
186 -187 -29 0 
16 -17 -25 0 
187 -90 -140 0 
188 -8 -193 0 
188 -189 -8 0 
188 189 -193 0 
189 -190 -33 0 
190 -191 -31 0 
191 -192 -29 0 
192 -98 -140 0 
193 -8 -3 0 
193 -194 -8 0 
193 194 -3 0 
194 -195 -33 0 
195 -196 -31 0 
196 -197 -29 0 
1 -2 0 
17 -18 -23 0 
197 -106 -140 0 
18 -19 -21 0 
19 20 0 
21 22 0 
23 24 0 
25 26 0 
27 28 0 
29 30 0 
31 32 0 
33 34 0 
35 -36 -44 0 
35 -44 -76 0 
35 36 -76 0 
36 -37 -33 0 
37 -38 -31 0 
38 -39 -29 0 
39 -40 -27 0 
40 -41 -25 0 
41 -42 -23 0 
42 -43 -21 0 
43 -20 0 
44 -8 -3 0 
44 -45 -8 0 
44 45 -3 0 
45 -46 -73 0 
46 -47 -70 0 
3 4 0 
47 -48 -67 0 
48 -49 -64 0 
49 -50 -61 0 
50 -51 -58 0 
51 -52 -55 0 
52 -53 -54 0 
52 53 54 0 
55 -56 -57 0 
55 56 57 0 
58 -59 -60 0 
58 59 60 0 
61 -62 -63 0 
61 62 63 0 
64 -65 -66 0 
64 65 66 0 
67 -68 -69 0 
67 68 69 0 
70 -71 -72 0 
70 71 72 0 
73 -74 -75 0 
73 74 75 0 
76 -8 -85 0 
76 -77 -8 0 
76 77 -85 0 
5 -8 -9 0 
5 -6 -8 0 
5 6 -9 0 
77 -78 -33 0 
78 -79 -31 0 
79 -80 -29 0 
80 -81 -27 0 
81 -82 -25 0 
82 -83 -23 0 
83 -19 -84 0 
84 -22 0 
85 -3 -93 0 
85 -86 -3 0 
85 86 -93 0 
86 -87 -33 0 
6 7 0 
87 -88 -31 0 
88 -89 -29 0 
89 -90 -27 0 
90 -91 -25 0 
91 -92 -23 0 
92 -43 -84 0 
93 -44 -101 0 
93 -94 -44 0 
93 94 -101 0 
94 -95 -33 0 
95 -96 -31 0 
96 -97 -29 0 
